p cnf 640 2174
c p weight 256 -1 0
c p weight -256 1 0
c p weight 258 6.12323399573676603586882014729198302312846062338790031898128063403419218957424163818359375E-17 0
c p weight -258 1 0
c p weight 259 1 0
c p weight -259 1 0
c p weight 260 -1 0
c p weight -260 1 0
c p weight 262 -1 0
c p weight -262 1 0
c p weight 265 -1 0
c p weight -265 1 0
c p weight 268 -1 0
c p weight -268 1 0
c p weight 271 -1 0
c p weight -271 1 0
c p weight 274 -1 0
c p weight -274 1 0
c p weight 277 -1 0
c p weight -277 1 0
c p weight 280 -1 0
c p weight -280 1 0
c p weight 283 -1 0
c p weight -283 1 0
c p weight 286 -1 0
c p weight -286 1 0
c p weight 289 -1 0
c p weight -289 1 0
c p weight 292 -1 0
c p weight -292 1 0
c p weight 295 -1 0
c p weight -295 1 0
c p weight 298 -1 0
c p weight -298 1 0
c p weight 301 -1 0
c p weight -301 1 0
c p weight 304 -1 0
c p weight -304 1 0
c p weight 307 -1 0
c p weight -307 1 0
c p weight 310 -1 0
c p weight -310 1 0
c p weight 313 -1 0
c p weight -313 1 0
c p weight 316 -1 0
c p weight -316 1 0
c p weight 319 -1 0
c p weight -319 1 0
c p weight 322 -1 0
c p weight -322 1 0
c p weight 325 -1 0
c p weight -325 1 0
c p weight 328 -1 0
c p weight -328 1 0
c p weight 331 -1 0
c p weight -331 1 0
c p weight 334 -1 0
c p weight -334 1 0
c p weight 337 -1 0
c p weight -337 1 0
c p weight 340 -1 0
c p weight -340 1 0
c p weight 343 -1 0
c p weight -343 1 0
c p weight 346 -1 0
c p weight -346 1 0
c p weight 349 -1 0
c p weight -349 1 0
c p weight 352 -1 0
c p weight -352 1 0
c p weight 355 -1 0
c p weight -355 1 0
c p weight 358 -1 0
c p weight -358 1 0
c p weight 361 -1 0
c p weight -361 1 0
c p weight 364 -1 0
c p weight -364 1 0
c p weight 367 -1 0
c p weight -367 1 0
c p weight 370 -1 0
c p weight -370 1 0
c p weight 373 -1 0
c p weight -373 1 0
c p weight 376 -1 0
c p weight -376 1 0
c p weight 379 -1 0
c p weight -379 1 0
c p weight 382 -1 0
c p weight -382 1 0
c p weight 385 -1 0
c p weight -385 1 0
c p weight 388 -1 0
c p weight -388 1 0
c p weight 391 -1 0
c p weight -391 1 0
c p weight 394 -1 0
c p weight -394 1 0
c p weight 397 -1 0
c p weight -397 1 0
c p weight 400 -1 0
c p weight -400 1 0
c p weight 403 -1 0
c p weight -403 1 0
c p weight 406 -1 0
c p weight -406 1 0
c p weight 409 -1 0
c p weight -409 1 0
c p weight 412 -1 0
c p weight -412 1 0
c p weight 415 -1 0
c p weight -415 1 0
c p weight 418 -1 0
c p weight -418 1 0
c p weight 421 -1 0
c p weight -421 1 0
c p weight 424 -1 0
c p weight -424 1 0
c p weight 427 -1 0
c p weight -427 1 0
c p weight 430 -1 0
c p weight -430 1 0
c p weight 433 -1 0
c p weight -433 1 0
c p weight 436 -1 0
c p weight -436 1 0
c p weight 439 -1 0
c p weight -439 1 0
c p weight 442 -1 0
c p weight -442 1 0
c p weight 445 -1 0
c p weight -445 1 0
c p weight 448 -1 0
c p weight -448 1 0
c p weight 451 -1 0
c p weight -451 1 0
c p weight 454 -1 0
c p weight -454 1 0
c p weight 457 -1 0
c p weight -457 1 0
c p weight 460 -1 0
c p weight -460 1 0
c p weight 463 -1 0
c p weight -463 1 0
c p weight 466 -1 0
c p weight -466 1 0
c p weight 469 -1 0
c p weight -469 1 0
c p weight 472 -1 0
c p weight -472 1 0
c p weight 475 -1 0
c p weight -475 1 0
c p weight 478 -1 0
c p weight -478 1 0
c p weight 481 -1 0
c p weight -481 1 0
c p weight 484 -1 0
c p weight -484 1 0
c p weight 487 -1 0
c p weight -487 1 0
c p weight 490 -1 0
c p weight -490 1 0
c p weight 493 -1 0
c p weight -493 1 0
c p weight 496 -1 0
c p weight -496 1 0
c p weight 499 -1 0
c p weight -499 1 0
c p weight 502 -1 0
c p weight -502 1 0
c p weight 505 -1 0
c p weight -505 1 0
c p weight 508 -1 0
c p weight -508 1 0
c p weight 511 -1 0
c p weight -511 1 0
c p weight 514 -1 0
c p weight -514 1 0
c p weight 517 -1 0
c p weight -517 1 0
c p weight 520 -1 0
c p weight -520 1 0
c p weight 523 -1 0
c p weight -523 1 0
c p weight 526 -1 0
c p weight -526 1 0
c p weight 529 -1 0
c p weight -529 1 0
c p weight 532 -1 0
c p weight -532 1 0
c p weight 535 -1 0
c p weight -535 1 0
c p weight 538 -1 0
c p weight -538 1 0
c p weight 541 -1 0
c p weight -541 1 0
c p weight 544 -1 0
c p weight -544 1 0
c p weight 547 -1 0
c p weight -547 1 0
c p weight 550 -1 0
c p weight -550 1 0
c p weight 553 -1 0
c p weight -553 1 0
c p weight 556 -1 0
c p weight -556 1 0
c p weight 559 -1 0
c p weight -559 1 0
c p weight 562 -1 0
c p weight -562 1 0
c p weight 565 -1 0
c p weight -565 1 0
c p weight 568 -1 0
c p weight -568 1 0
c p weight 571 -1 0
c p weight -571 1 0
c p weight 574 -1 0
c p weight -574 1 0
c p weight 577 -1 0
c p weight -577 1 0
c p weight 580 -1 0
c p weight -580 1 0
c p weight 583 -1 0
c p weight -583 1 0
c p weight 586 -1 0
c p weight -586 1 0
c p weight 589 -1 0
c p weight -589 1 0
c p weight 592 -1 0
c p weight -592 1 0
c p weight 595 -1 0
c p weight -595 1 0
c p weight 598 -1 0
c p weight -598 1 0
c p weight 601 -1 0
c p weight -601 1 0
c p weight 604 -1 0
c p weight -604 1 0
c p weight 607 -1 0
c p weight -607 1 0
c p weight 610 -1 0
c p weight -610 1 0
c p weight 613 -1 0
c p weight -613 1 0
c p weight 616 -1 0
c p weight -616 1 0
c p weight 619 -1 0
c p weight -619 1 0
c p weight 622 -1 0
c p weight -622 1 0
c p weight 625 -1 0
c p weight -625 1 0
c p weight 628 -1 0
c p weight -628 1 0
c p weight 631 -1 0
c p weight -631 1 0
c p weight 634 -1 0
c p weight -634 1 0
c p weight 637 -1 0
c p weight -637 1 0
c p weight 640 -1 0
c p weight -640 1 0
-253 0
-251 0
-249 0
-247 0
-245 0
-243 0
-241 0
-239 0
-237 0
-235 0
-233 0
-231 0
-229 0
-227 0
-225 0
-223 0
-221 0
-219 0
-217 0
-215 0
-213 0
-211 0
-209 0
-207 0
-205 0
-203 0
-201 0
-199 0
-197 0
-195 0
-193 0
-191 0
-189 0
-187 0
-185 0
-183 0
-181 0
-179 0
-177 0
-175 0
-173 0
-171 0
-169 0
-167 0
-165 0
-163 0
-161 0
-159 0
-157 0
-155 0
-153 0
-151 0
-149 0
-147 0
-145 0
-143 0
-141 0
-139 0
-137 0
-135 0
-133 0
-131 0
-129 0
-127 0
-125 0
-123 0
-121 0
-119 0
-117 0
-115 0
-113 0
-111 0
-109 0
-107 0
-105 0
-103 0
-101 0
-99 0
-97 0
-95 0
-93 0
-91 0
-89 0
-87 0
-85 0
-83 0
-81 0
-79 0
-77 0
-75 0
-73 0
-71 0
-69 0
-67 0
-65 0
-63 0
-61 0
-59 0
-57 0
-55 0
-53 0
-51 0
-49 0
-47 0
-45 0
-43 0
-41 0
-39 0
-37 0
-35 0
-33 0
-31 0
-29 0
-27 0
-25 0
-23 0
-21 0
-19 0
-17 0
-15 0
-13 0
-11 0
-9 0
-7 0
-5 0
-3 0
-1 0
255 253 -254 0
255 -253 254 0
-255 253 254 0
-255 -253 -254 0
-256 253 0
-256 254 0
256 -253 -254 0
257 -253 255 0
-257 253 255 0
-258 255 0
257 -258 -253 0
-257 -258 253 0
257 258 253 -255 0
-257 258 -253 -255 0
-259 255 0
257 -259 253 0
-257 -259 -253 0
257 259 -253 -255 0
-257 259 253 -255 0
-260 257 0
-260 255 0
-260 -253 0
260 -257 253 -255 0
261 257 -255 0
261 -257 255 0
-261 257 255 0
-261 -257 -255 0
-262 257 0
-262 255 0
262 -257 -255 0
263 257 -251 0
263 -257 251 0
-263 257 251 0
-263 -257 -251 0
264 261 -252 0
264 -261 252 0
-264 261 252 0
-264 -261 -252 0
-265 257 0
-265 252 0
-265 251 -261 0
-265 -251 261 0
265 -257 251 261 -252 0
265 -257 -251 -261 -252 0
266 263 -249 0
266 -263 249 0
-266 263 249 0
-266 -263 -249 0
267 252 -250 0
267 -252 250 0
-267 252 250 0
-267 -252 -250 0
-268 263 0
-268 250 0
-268 249 -252 0
-268 -249 252 0
268 -263 249 252 -250 0
268 -263 -249 -252 -250 0
269 266 -247 0
269 -266 247 0
-269 266 247 0
-269 -266 -247 0
270 250 -248 0
270 -250 248 0
-270 250 248 0
-270 -250 -248 0
-271 266 0
-271 248 0
-271 247 -250 0
-271 -247 250 0
271 -266 247 250 -248 0
271 -266 -247 -250 -248 0
272 269 -245 0
272 -269 245 0
-272 269 245 0
-272 -269 -245 0
273 248 -246 0
273 -248 246 0
-273 248 246 0
-273 -248 -246 0
-274 269 0
-274 246 0
-274 245 -248 0
-274 -245 248 0
274 -269 245 248 -246 0
274 -269 -245 -248 -246 0
275 272 -243 0
275 -272 243 0
-275 272 243 0
-275 -272 -243 0
276 246 -244 0
276 -246 244 0
-276 246 244 0
-276 -246 -244 0
-277 272 0
-277 244 0
-277 243 -246 0
-277 -243 246 0
277 -272 243 246 -244 0
277 -272 -243 -246 -244 0
278 275 -241 0
278 -275 241 0
-278 275 241 0
-278 -275 -241 0
279 244 -242 0
279 -244 242 0
-279 244 242 0
-279 -244 -242 0
-280 275 0
-280 242 0
-280 241 -244 0
-280 -241 244 0
280 -275 241 244 -242 0
280 -275 -241 -244 -242 0
281 278 -239 0
281 -278 239 0
-281 278 239 0
-281 -278 -239 0
282 242 -240 0
282 -242 240 0
-282 242 240 0
-282 -242 -240 0
-283 278 0
-283 240 0
-283 239 -242 0
-283 -239 242 0
283 -278 239 242 -240 0
283 -278 -239 -242 -240 0
284 281 -237 0
284 -281 237 0
-284 281 237 0
-284 -281 -237 0
285 240 -238 0
285 -240 238 0
-285 240 238 0
-285 -240 -238 0
-286 281 0
-286 238 0
-286 237 -240 0
-286 -237 240 0
286 -281 237 240 -238 0
286 -281 -237 -240 -238 0
287 284 -235 0
287 -284 235 0
-287 284 235 0
-287 -284 -235 0
288 238 -236 0
288 -238 236 0
-288 238 236 0
-288 -238 -236 0
-289 284 0
-289 236 0
-289 235 -238 0
-289 -235 238 0
289 -284 235 238 -236 0
289 -284 -235 -238 -236 0
290 287 -233 0
290 -287 233 0
-290 287 233 0
-290 -287 -233 0
291 236 -234 0
291 -236 234 0
-291 236 234 0
-291 -236 -234 0
-292 287 0
-292 234 0
-292 233 -236 0
-292 -233 236 0
292 -287 233 236 -234 0
292 -287 -233 -236 -234 0
293 290 -231 0
293 -290 231 0
-293 290 231 0
-293 -290 -231 0
294 234 -232 0
294 -234 232 0
-294 234 232 0
-294 -234 -232 0
-295 290 0
-295 232 0
-295 231 -234 0
-295 -231 234 0
295 -290 231 234 -232 0
295 -290 -231 -234 -232 0
296 293 -229 0
296 -293 229 0
-296 293 229 0
-296 -293 -229 0
297 232 -230 0
297 -232 230 0
-297 232 230 0
-297 -232 -230 0
-298 293 0
-298 230 0
-298 229 -232 0
-298 -229 232 0
298 -293 229 232 -230 0
298 -293 -229 -232 -230 0
299 296 -227 0
299 -296 227 0
-299 296 227 0
-299 -296 -227 0
300 230 -228 0
300 -230 228 0
-300 230 228 0
-300 -230 -228 0
-301 296 0
-301 228 0
-301 227 -230 0
-301 -227 230 0
301 -296 227 230 -228 0
301 -296 -227 -230 -228 0
302 299 -225 0
302 -299 225 0
-302 299 225 0
-302 -299 -225 0
303 228 -226 0
303 -228 226 0
-303 228 226 0
-303 -228 -226 0
-304 299 0
-304 226 0
-304 225 -228 0
-304 -225 228 0
304 -299 225 228 -226 0
304 -299 -225 -228 -226 0
305 302 -223 0
305 -302 223 0
-305 302 223 0
-305 -302 -223 0
306 226 -224 0
306 -226 224 0
-306 226 224 0
-306 -226 -224 0
-307 302 0
-307 224 0
-307 223 -226 0
-307 -223 226 0
307 -302 223 226 -224 0
307 -302 -223 -226 -224 0
308 305 -221 0
308 -305 221 0
-308 305 221 0
-308 -305 -221 0
309 224 -222 0
309 -224 222 0
-309 224 222 0
-309 -224 -222 0
-310 305 0
-310 222 0
-310 221 -224 0
-310 -221 224 0
310 -305 221 224 -222 0
310 -305 -221 -224 -222 0
311 308 -219 0
311 -308 219 0
-311 308 219 0
-311 -308 -219 0
312 222 -220 0
312 -222 220 0
-312 222 220 0
-312 -222 -220 0
-313 308 0
-313 220 0
-313 219 -222 0
-313 -219 222 0
313 -308 219 222 -220 0
313 -308 -219 -222 -220 0
314 311 -217 0
314 -311 217 0
-314 311 217 0
-314 -311 -217 0
315 220 -218 0
315 -220 218 0
-315 220 218 0
-315 -220 -218 0
-316 311 0
-316 218 0
-316 217 -220 0
-316 -217 220 0
316 -311 217 220 -218 0
316 -311 -217 -220 -218 0
317 314 -215 0
317 -314 215 0
-317 314 215 0
-317 -314 -215 0
318 218 -216 0
318 -218 216 0
-318 218 216 0
-318 -218 -216 0
-319 314 0
-319 216 0
-319 215 -218 0
-319 -215 218 0
319 -314 215 218 -216 0
319 -314 -215 -218 -216 0
320 317 -213 0
320 -317 213 0
-320 317 213 0
-320 -317 -213 0
321 216 -214 0
321 -216 214 0
-321 216 214 0
-321 -216 -214 0
-322 317 0
-322 214 0
-322 213 -216 0
-322 -213 216 0
322 -317 213 216 -214 0
322 -317 -213 -216 -214 0
323 320 -211 0
323 -320 211 0
-323 320 211 0
-323 -320 -211 0
324 214 -212 0
324 -214 212 0
-324 214 212 0
-324 -214 -212 0
-325 320 0
-325 212 0
-325 211 -214 0
-325 -211 214 0
325 -320 211 214 -212 0
325 -320 -211 -214 -212 0
326 323 -209 0
326 -323 209 0
-326 323 209 0
-326 -323 -209 0
327 212 -210 0
327 -212 210 0
-327 212 210 0
-327 -212 -210 0
-328 323 0
-328 210 0
-328 209 -212 0
-328 -209 212 0
328 -323 209 212 -210 0
328 -323 -209 -212 -210 0
329 326 -207 0
329 -326 207 0
-329 326 207 0
-329 -326 -207 0
330 210 -208 0
330 -210 208 0
-330 210 208 0
-330 -210 -208 0
-331 326 0
-331 208 0
-331 207 -210 0
-331 -207 210 0
331 -326 207 210 -208 0
331 -326 -207 -210 -208 0
332 329 -205 0
332 -329 205 0
-332 329 205 0
-332 -329 -205 0
333 208 -206 0
333 -208 206 0
-333 208 206 0
-333 -208 -206 0
-334 329 0
-334 206 0
-334 205 -208 0
-334 -205 208 0
334 -329 205 208 -206 0
334 -329 -205 -208 -206 0
335 332 -203 0
335 -332 203 0
-335 332 203 0
-335 -332 -203 0
336 206 -204 0
336 -206 204 0
-336 206 204 0
-336 -206 -204 0
-337 332 0
-337 204 0
-337 203 -206 0
-337 -203 206 0
337 -332 203 206 -204 0
337 -332 -203 -206 -204 0
338 335 -201 0
338 -335 201 0
-338 335 201 0
-338 -335 -201 0
339 204 -202 0
339 -204 202 0
-339 204 202 0
-339 -204 -202 0
-340 335 0
-340 202 0
-340 201 -204 0
-340 -201 204 0
340 -335 201 204 -202 0
340 -335 -201 -204 -202 0
341 338 -199 0
341 -338 199 0
-341 338 199 0
-341 -338 -199 0
342 202 -200 0
342 -202 200 0
-342 202 200 0
-342 -202 -200 0
-343 338 0
-343 200 0
-343 199 -202 0
-343 -199 202 0
343 -338 199 202 -200 0
343 -338 -199 -202 -200 0
344 341 -197 0
344 -341 197 0
-344 341 197 0
-344 -341 -197 0
345 200 -198 0
345 -200 198 0
-345 200 198 0
-345 -200 -198 0
-346 341 0
-346 198 0
-346 197 -200 0
-346 -197 200 0
346 -341 197 200 -198 0
346 -341 -197 -200 -198 0
347 344 -195 0
347 -344 195 0
-347 344 195 0
-347 -344 -195 0
348 198 -196 0
348 -198 196 0
-348 198 196 0
-348 -198 -196 0
-349 344 0
-349 196 0
-349 195 -198 0
-349 -195 198 0
349 -344 195 198 -196 0
349 -344 -195 -198 -196 0
350 347 -193 0
350 -347 193 0
-350 347 193 0
-350 -347 -193 0
351 196 -194 0
351 -196 194 0
-351 196 194 0
-351 -196 -194 0
-352 347 0
-352 194 0
-352 193 -196 0
-352 -193 196 0
352 -347 193 196 -194 0
352 -347 -193 -196 -194 0
353 350 -191 0
353 -350 191 0
-353 350 191 0
-353 -350 -191 0
354 194 -192 0
354 -194 192 0
-354 194 192 0
-354 -194 -192 0
-355 350 0
-355 192 0
-355 191 -194 0
-355 -191 194 0
355 -350 191 194 -192 0
355 -350 -191 -194 -192 0
356 353 -189 0
356 -353 189 0
-356 353 189 0
-356 -353 -189 0
357 192 -190 0
357 -192 190 0
-357 192 190 0
-357 -192 -190 0
-358 353 0
-358 190 0
-358 189 -192 0
-358 -189 192 0
358 -353 189 192 -190 0
358 -353 -189 -192 -190 0
359 356 -187 0
359 -356 187 0
-359 356 187 0
-359 -356 -187 0
360 190 -188 0
360 -190 188 0
-360 190 188 0
-360 -190 -188 0
-361 356 0
-361 188 0
-361 187 -190 0
-361 -187 190 0
361 -356 187 190 -188 0
361 -356 -187 -190 -188 0
362 359 -185 0
362 -359 185 0
-362 359 185 0
-362 -359 -185 0
363 188 -186 0
363 -188 186 0
-363 188 186 0
-363 -188 -186 0
-364 359 0
-364 186 0
-364 185 -188 0
-364 -185 188 0
364 -359 185 188 -186 0
364 -359 -185 -188 -186 0
365 362 -183 0
365 -362 183 0
-365 362 183 0
-365 -362 -183 0
366 186 -184 0
366 -186 184 0
-366 186 184 0
-366 -186 -184 0
-367 362 0
-367 184 0
-367 183 -186 0
-367 -183 186 0
367 -362 183 186 -184 0
367 -362 -183 -186 -184 0
368 365 -181 0
368 -365 181 0
-368 365 181 0
-368 -365 -181 0
369 184 -182 0
369 -184 182 0
-369 184 182 0
-369 -184 -182 0
-370 365 0
-370 182 0
-370 181 -184 0
-370 -181 184 0
370 -365 181 184 -182 0
370 -365 -181 -184 -182 0
371 368 -179 0
371 -368 179 0
-371 368 179 0
-371 -368 -179 0
372 182 -180 0
372 -182 180 0
-372 182 180 0
-372 -182 -180 0
-373 368 0
-373 180 0
-373 179 -182 0
-373 -179 182 0
373 -368 179 182 -180 0
373 -368 -179 -182 -180 0
374 371 -177 0
374 -371 177 0
-374 371 177 0
-374 -371 -177 0
375 180 -178 0
375 -180 178 0
-375 180 178 0
-375 -180 -178 0
-376 371 0
-376 178 0
-376 177 -180 0
-376 -177 180 0
376 -371 177 180 -178 0
376 -371 -177 -180 -178 0
377 374 -175 0
377 -374 175 0
-377 374 175 0
-377 -374 -175 0
378 178 -176 0
378 -178 176 0
-378 178 176 0
-378 -178 -176 0
-379 374 0
-379 176 0
-379 175 -178 0
-379 -175 178 0
379 -374 175 178 -176 0
379 -374 -175 -178 -176 0
380 377 -173 0
380 -377 173 0
-380 377 173 0
-380 -377 -173 0
381 176 -174 0
381 -176 174 0
-381 176 174 0
-381 -176 -174 0
-382 377 0
-382 174 0
-382 173 -176 0
-382 -173 176 0
382 -377 173 176 -174 0
382 -377 -173 -176 -174 0
383 380 -171 0
383 -380 171 0
-383 380 171 0
-383 -380 -171 0
384 174 -172 0
384 -174 172 0
-384 174 172 0
-384 -174 -172 0
-385 380 0
-385 172 0
-385 171 -174 0
-385 -171 174 0
385 -380 171 174 -172 0
385 -380 -171 -174 -172 0
386 383 -169 0
386 -383 169 0
-386 383 169 0
-386 -383 -169 0
387 172 -170 0
387 -172 170 0
-387 172 170 0
-387 -172 -170 0
-388 383 0
-388 170 0
-388 169 -172 0
-388 -169 172 0
388 -383 169 172 -170 0
388 -383 -169 -172 -170 0
389 386 -167 0
389 -386 167 0
-389 386 167 0
-389 -386 -167 0
390 170 -168 0
390 -170 168 0
-390 170 168 0
-390 -170 -168 0
-391 386 0
-391 168 0
-391 167 -170 0
-391 -167 170 0
391 -386 167 170 -168 0
391 -386 -167 -170 -168 0
392 389 -165 0
392 -389 165 0
-392 389 165 0
-392 -389 -165 0
393 168 -166 0
393 -168 166 0
-393 168 166 0
-393 -168 -166 0
-394 389 0
-394 166 0
-394 165 -168 0
-394 -165 168 0
394 -389 165 168 -166 0
394 -389 -165 -168 -166 0
395 392 -163 0
395 -392 163 0
-395 392 163 0
-395 -392 -163 0
396 166 -164 0
396 -166 164 0
-396 166 164 0
-396 -166 -164 0
-397 392 0
-397 164 0
-397 163 -166 0
-397 -163 166 0
397 -392 163 166 -164 0
397 -392 -163 -166 -164 0
398 395 -161 0
398 -395 161 0
-398 395 161 0
-398 -395 -161 0
399 164 -162 0
399 -164 162 0
-399 164 162 0
-399 -164 -162 0
-400 395 0
-400 162 0
-400 161 -164 0
-400 -161 164 0
400 -395 161 164 -162 0
400 -395 -161 -164 -162 0
401 398 -159 0
401 -398 159 0
-401 398 159 0
-401 -398 -159 0
402 162 -160 0
402 -162 160 0
-402 162 160 0
-402 -162 -160 0
-403 398 0
-403 160 0
-403 159 -162 0
-403 -159 162 0
403 -398 159 162 -160 0
403 -398 -159 -162 -160 0
404 401 -157 0
404 -401 157 0
-404 401 157 0
-404 -401 -157 0
405 160 -158 0
405 -160 158 0
-405 160 158 0
-405 -160 -158 0
-406 401 0
-406 158 0
-406 157 -160 0
-406 -157 160 0
406 -401 157 160 -158 0
406 -401 -157 -160 -158 0
407 404 -155 0
407 -404 155 0
-407 404 155 0
-407 -404 -155 0
408 158 -156 0
408 -158 156 0
-408 158 156 0
-408 -158 -156 0
-409 404 0
-409 156 0
-409 155 -158 0
-409 -155 158 0
409 -404 155 158 -156 0
409 -404 -155 -158 -156 0
410 407 -153 0
410 -407 153 0
-410 407 153 0
-410 -407 -153 0
411 156 -154 0
411 -156 154 0
-411 156 154 0
-411 -156 -154 0
-412 407 0
-412 154 0
-412 153 -156 0
-412 -153 156 0
412 -407 153 156 -154 0
412 -407 -153 -156 -154 0
413 410 -151 0
413 -410 151 0
-413 410 151 0
-413 -410 -151 0
414 154 -152 0
414 -154 152 0
-414 154 152 0
-414 -154 -152 0
-415 410 0
-415 152 0
-415 151 -154 0
-415 -151 154 0
415 -410 151 154 -152 0
415 -410 -151 -154 -152 0
416 413 -149 0
416 -413 149 0
-416 413 149 0
-416 -413 -149 0
417 152 -150 0
417 -152 150 0
-417 152 150 0
-417 -152 -150 0
-418 413 0
-418 150 0
-418 149 -152 0
-418 -149 152 0
418 -413 149 152 -150 0
418 -413 -149 -152 -150 0
419 416 -147 0
419 -416 147 0
-419 416 147 0
-419 -416 -147 0
420 150 -148 0
420 -150 148 0
-420 150 148 0
-420 -150 -148 0
-421 416 0
-421 148 0
-421 147 -150 0
-421 -147 150 0
421 -416 147 150 -148 0
421 -416 -147 -150 -148 0
422 419 -145 0
422 -419 145 0
-422 419 145 0
-422 -419 -145 0
423 148 -146 0
423 -148 146 0
-423 148 146 0
-423 -148 -146 0
-424 419 0
-424 146 0
-424 145 -148 0
-424 -145 148 0
424 -419 145 148 -146 0
424 -419 -145 -148 -146 0
425 422 -143 0
425 -422 143 0
-425 422 143 0
-425 -422 -143 0
426 146 -144 0
426 -146 144 0
-426 146 144 0
-426 -146 -144 0
-427 422 0
-427 144 0
-427 143 -146 0
-427 -143 146 0
427 -422 143 146 -144 0
427 -422 -143 -146 -144 0
428 425 -141 0
428 -425 141 0
-428 425 141 0
-428 -425 -141 0
429 144 -142 0
429 -144 142 0
-429 144 142 0
-429 -144 -142 0
-430 425 0
-430 142 0
-430 141 -144 0
-430 -141 144 0
430 -425 141 144 -142 0
430 -425 -141 -144 -142 0
431 428 -139 0
431 -428 139 0
-431 428 139 0
-431 -428 -139 0
432 142 -140 0
432 -142 140 0
-432 142 140 0
-432 -142 -140 0
-433 428 0
-433 140 0
-433 139 -142 0
-433 -139 142 0
433 -428 139 142 -140 0
433 -428 -139 -142 -140 0
434 431 -137 0
434 -431 137 0
-434 431 137 0
-434 -431 -137 0
435 140 -138 0
435 -140 138 0
-435 140 138 0
-435 -140 -138 0
-436 431 0
-436 138 0
-436 137 -140 0
-436 -137 140 0
436 -431 137 140 -138 0
436 -431 -137 -140 -138 0
437 434 -135 0
437 -434 135 0
-437 434 135 0
-437 -434 -135 0
438 138 -136 0
438 -138 136 0
-438 138 136 0
-438 -138 -136 0
-439 434 0
-439 136 0
-439 135 -138 0
-439 -135 138 0
439 -434 135 138 -136 0
439 -434 -135 -138 -136 0
440 437 -133 0
440 -437 133 0
-440 437 133 0
-440 -437 -133 0
441 136 -134 0
441 -136 134 0
-441 136 134 0
-441 -136 -134 0
-442 437 0
-442 134 0
-442 133 -136 0
-442 -133 136 0
442 -437 133 136 -134 0
442 -437 -133 -136 -134 0
443 440 -131 0
443 -440 131 0
-443 440 131 0
-443 -440 -131 0
444 134 -132 0
444 -134 132 0
-444 134 132 0
-444 -134 -132 0
-445 440 0
-445 132 0
-445 131 -134 0
-445 -131 134 0
445 -440 131 134 -132 0
445 -440 -131 -134 -132 0
446 443 -129 0
446 -443 129 0
-446 443 129 0
-446 -443 -129 0
447 132 -130 0
447 -132 130 0
-447 132 130 0
-447 -132 -130 0
-448 443 0
-448 130 0
-448 129 -132 0
-448 -129 132 0
448 -443 129 132 -130 0
448 -443 -129 -132 -130 0
449 446 -127 0
449 -446 127 0
-449 446 127 0
-449 -446 -127 0
450 130 -128 0
450 -130 128 0
-450 130 128 0
-450 -130 -128 0
-451 446 0
-451 128 0
-451 127 -130 0
-451 -127 130 0
451 -446 127 130 -128 0
451 -446 -127 -130 -128 0
452 449 -125 0
452 -449 125 0
-452 449 125 0
-452 -449 -125 0
453 128 -126 0
453 -128 126 0
-453 128 126 0
-453 -128 -126 0
-454 449 0
-454 126 0
-454 125 -128 0
-454 -125 128 0
454 -449 125 128 -126 0
454 -449 -125 -128 -126 0
455 452 -123 0
455 -452 123 0
-455 452 123 0
-455 -452 -123 0
456 126 -124 0
456 -126 124 0
-456 126 124 0
-456 -126 -124 0
-457 452 0
-457 124 0
-457 123 -126 0
-457 -123 126 0
457 -452 123 126 -124 0
457 -452 -123 -126 -124 0
458 455 -121 0
458 -455 121 0
-458 455 121 0
-458 -455 -121 0
459 124 -122 0
459 -124 122 0
-459 124 122 0
-459 -124 -122 0
-460 455 0
-460 122 0
-460 121 -124 0
-460 -121 124 0
460 -455 121 124 -122 0
460 -455 -121 -124 -122 0
461 458 -119 0
461 -458 119 0
-461 458 119 0
-461 -458 -119 0
462 122 -120 0
462 -122 120 0
-462 122 120 0
-462 -122 -120 0
-463 458 0
-463 120 0
-463 119 -122 0
-463 -119 122 0
463 -458 119 122 -120 0
463 -458 -119 -122 -120 0
464 461 -117 0
464 -461 117 0
-464 461 117 0
-464 -461 -117 0
465 120 -118 0
465 -120 118 0
-465 120 118 0
-465 -120 -118 0
-466 461 0
-466 118 0
-466 117 -120 0
-466 -117 120 0
466 -461 117 120 -118 0
466 -461 -117 -120 -118 0
467 464 -115 0
467 -464 115 0
-467 464 115 0
-467 -464 -115 0
468 118 -116 0
468 -118 116 0
-468 118 116 0
-468 -118 -116 0
-469 464 0
-469 116 0
-469 115 -118 0
-469 -115 118 0
469 -464 115 118 -116 0
469 -464 -115 -118 -116 0
470 467 -113 0
470 -467 113 0
-470 467 113 0
-470 -467 -113 0
471 116 -114 0
471 -116 114 0
-471 116 114 0
-471 -116 -114 0
-472 467 0
-472 114 0
-472 113 -116 0
-472 -113 116 0
472 -467 113 116 -114 0
472 -467 -113 -116 -114 0
473 470 -111 0
473 -470 111 0
-473 470 111 0
-473 -470 -111 0
474 114 -112 0
474 -114 112 0
-474 114 112 0
-474 -114 -112 0
-475 470 0
-475 112 0
-475 111 -114 0
-475 -111 114 0
475 -470 111 114 -112 0
475 -470 -111 -114 -112 0
476 473 -109 0
476 -473 109 0
-476 473 109 0
-476 -473 -109 0
477 112 -110 0
477 -112 110 0
-477 112 110 0
-477 -112 -110 0
-478 473 0
-478 110 0
-478 109 -112 0
-478 -109 112 0
478 -473 109 112 -110 0
478 -473 -109 -112 -110 0
479 476 -107 0
479 -476 107 0
-479 476 107 0
-479 -476 -107 0
480 110 -108 0
480 -110 108 0
-480 110 108 0
-480 -110 -108 0
-481 476 0
-481 108 0
-481 107 -110 0
-481 -107 110 0
481 -476 107 110 -108 0
481 -476 -107 -110 -108 0
482 479 -105 0
482 -479 105 0
-482 479 105 0
-482 -479 -105 0
483 108 -106 0
483 -108 106 0
-483 108 106 0
-483 -108 -106 0
-484 479 0
-484 106 0
-484 105 -108 0
-484 -105 108 0
484 -479 105 108 -106 0
484 -479 -105 -108 -106 0
485 482 -103 0
485 -482 103 0
-485 482 103 0
-485 -482 -103 0
486 106 -104 0
486 -106 104 0
-486 106 104 0
-486 -106 -104 0
-487 482 0
-487 104 0
-487 103 -106 0
-487 -103 106 0
487 -482 103 106 -104 0
487 -482 -103 -106 -104 0
488 485 -101 0
488 -485 101 0
-488 485 101 0
-488 -485 -101 0
489 104 -102 0
489 -104 102 0
-489 104 102 0
-489 -104 -102 0
-490 485 0
-490 102 0
-490 101 -104 0
-490 -101 104 0
490 -485 101 104 -102 0
490 -485 -101 -104 -102 0
491 488 -99 0
491 -488 99 0
-491 488 99 0
-491 -488 -99 0
492 102 -100 0
492 -102 100 0
-492 102 100 0
-492 -102 -100 0
-493 488 0
-493 100 0
-493 99 -102 0
-493 -99 102 0
493 -488 99 102 -100 0
493 -488 -99 -102 -100 0
494 491 -97 0
494 -491 97 0
-494 491 97 0
-494 -491 -97 0
495 100 -98 0
495 -100 98 0
-495 100 98 0
-495 -100 -98 0
-496 491 0
-496 98 0
-496 97 -100 0
-496 -97 100 0
496 -491 97 100 -98 0
496 -491 -97 -100 -98 0
497 494 -95 0
497 -494 95 0
-497 494 95 0
-497 -494 -95 0
498 98 -96 0
498 -98 96 0
-498 98 96 0
-498 -98 -96 0
-499 494 0
-499 96 0
-499 95 -98 0
-499 -95 98 0
499 -494 95 98 -96 0
499 -494 -95 -98 -96 0
500 497 -93 0
500 -497 93 0
-500 497 93 0
-500 -497 -93 0
501 96 -94 0
501 -96 94 0
-501 96 94 0
-501 -96 -94 0
-502 497 0
-502 94 0
-502 93 -96 0
-502 -93 96 0
502 -497 93 96 -94 0
502 -497 -93 -96 -94 0
503 500 -91 0
503 -500 91 0
-503 500 91 0
-503 -500 -91 0
504 94 -92 0
504 -94 92 0
-504 94 92 0
-504 -94 -92 0
-505 500 0
-505 92 0
-505 91 -94 0
-505 -91 94 0
505 -500 91 94 -92 0
505 -500 -91 -94 -92 0
506 503 -89 0
506 -503 89 0
-506 503 89 0
-506 -503 -89 0
507 92 -90 0
507 -92 90 0
-507 92 90 0
-507 -92 -90 0
-508 503 0
-508 90 0
-508 89 -92 0
-508 -89 92 0
508 -503 89 92 -90 0
508 -503 -89 -92 -90 0
509 506 -87 0
509 -506 87 0
-509 506 87 0
-509 -506 -87 0
510 90 -88 0
510 -90 88 0
-510 90 88 0
-510 -90 -88 0
-511 506 0
-511 88 0
-511 87 -90 0
-511 -87 90 0
511 -506 87 90 -88 0
511 -506 -87 -90 -88 0
512 509 -85 0
512 -509 85 0
-512 509 85 0
-512 -509 -85 0
513 88 -86 0
513 -88 86 0
-513 88 86 0
-513 -88 -86 0
-514 509 0
-514 86 0
-514 85 -88 0
-514 -85 88 0
514 -509 85 88 -86 0
514 -509 -85 -88 -86 0
515 512 -83 0
515 -512 83 0
-515 512 83 0
-515 -512 -83 0
516 86 -84 0
516 -86 84 0
-516 86 84 0
-516 -86 -84 0
-517 512 0
-517 84 0
-517 83 -86 0
-517 -83 86 0
517 -512 83 86 -84 0
517 -512 -83 -86 -84 0
518 515 -81 0
518 -515 81 0
-518 515 81 0
-518 -515 -81 0
519 84 -82 0
519 -84 82 0
-519 84 82 0
-519 -84 -82 0
-520 515 0
-520 82 0
-520 81 -84 0
-520 -81 84 0
520 -515 81 84 -82 0
520 -515 -81 -84 -82 0
521 518 -79 0
521 -518 79 0
-521 518 79 0
-521 -518 -79 0
522 82 -80 0
522 -82 80 0
-522 82 80 0
-522 -82 -80 0
-523 518 0
-523 80 0
-523 79 -82 0
-523 -79 82 0
523 -518 79 82 -80 0
523 -518 -79 -82 -80 0
524 521 -77 0
524 -521 77 0
-524 521 77 0
-524 -521 -77 0
525 80 -78 0
525 -80 78 0
-525 80 78 0
-525 -80 -78 0
-526 521 0
-526 78 0
-526 77 -80 0
-526 -77 80 0
526 -521 77 80 -78 0
526 -521 -77 -80 -78 0
527 524 -75 0
527 -524 75 0
-527 524 75 0
-527 -524 -75 0
528 78 -76 0
528 -78 76 0
-528 78 76 0
-528 -78 -76 0
-529 524 0
-529 76 0
-529 75 -78 0
-529 -75 78 0
529 -524 75 78 -76 0
529 -524 -75 -78 -76 0
530 527 -73 0
530 -527 73 0
-530 527 73 0
-530 -527 -73 0
531 76 -74 0
531 -76 74 0
-531 76 74 0
-531 -76 -74 0
-532 527 0
-532 74 0
-532 73 -76 0
-532 -73 76 0
532 -527 73 76 -74 0
532 -527 -73 -76 -74 0
533 530 -71 0
533 -530 71 0
-533 530 71 0
-533 -530 -71 0
534 74 -72 0
534 -74 72 0
-534 74 72 0
-534 -74 -72 0
-535 530 0
-535 72 0
-535 71 -74 0
-535 -71 74 0
535 -530 71 74 -72 0
535 -530 -71 -74 -72 0
536 533 -69 0
536 -533 69 0
-536 533 69 0
-536 -533 -69 0
537 72 -70 0
537 -72 70 0
-537 72 70 0
-537 -72 -70 0
-538 533 0
-538 70 0
-538 69 -72 0
-538 -69 72 0
538 -533 69 72 -70 0
538 -533 -69 -72 -70 0
539 536 -67 0
539 -536 67 0
-539 536 67 0
-539 -536 -67 0
540 70 -68 0
540 -70 68 0
-540 70 68 0
-540 -70 -68 0
-541 536 0
-541 68 0
-541 67 -70 0
-541 -67 70 0
541 -536 67 70 -68 0
541 -536 -67 -70 -68 0
542 539 -65 0
542 -539 65 0
-542 539 65 0
-542 -539 -65 0
543 68 -66 0
543 -68 66 0
-543 68 66 0
-543 -68 -66 0
-544 539 0
-544 66 0
-544 65 -68 0
-544 -65 68 0
544 -539 65 68 -66 0
544 -539 -65 -68 -66 0
545 542 -63 0
545 -542 63 0
-545 542 63 0
-545 -542 -63 0
546 66 -64 0
546 -66 64 0
-546 66 64 0
-546 -66 -64 0
-547 542 0
-547 64 0
-547 63 -66 0
-547 -63 66 0
547 -542 63 66 -64 0
547 -542 -63 -66 -64 0
548 545 -61 0
548 -545 61 0
-548 545 61 0
-548 -545 -61 0
549 64 -62 0
549 -64 62 0
-549 64 62 0
-549 -64 -62 0
-550 545 0
-550 62 0
-550 61 -64 0
-550 -61 64 0
550 -545 61 64 -62 0
550 -545 -61 -64 -62 0
551 548 -59 0
551 -548 59 0
-551 548 59 0
-551 -548 -59 0
552 62 -60 0
552 -62 60 0
-552 62 60 0
-552 -62 -60 0
-553 548 0
-553 60 0
-553 59 -62 0
-553 -59 62 0
553 -548 59 62 -60 0
553 -548 -59 -62 -60 0
554 551 -57 0
554 -551 57 0
-554 551 57 0
-554 -551 -57 0
555 60 -58 0
555 -60 58 0
-555 60 58 0
-555 -60 -58 0
-556 551 0
-556 58 0
-556 57 -60 0
-556 -57 60 0
556 -551 57 60 -58 0
556 -551 -57 -60 -58 0
557 554 -55 0
557 -554 55 0
-557 554 55 0
-557 -554 -55 0
558 58 -56 0
558 -58 56 0
-558 58 56 0
-558 -58 -56 0
-559 554 0
-559 56 0
-559 55 -58 0
-559 -55 58 0
559 -554 55 58 -56 0
559 -554 -55 -58 -56 0
560 557 -53 0
560 -557 53 0
-560 557 53 0
-560 -557 -53 0
561 56 -54 0
561 -56 54 0
-561 56 54 0
-561 -56 -54 0
-562 557 0
-562 54 0
-562 53 -56 0
-562 -53 56 0
562 -557 53 56 -54 0
562 -557 -53 -56 -54 0
563 560 -51 0
563 -560 51 0
-563 560 51 0
-563 -560 -51 0
564 54 -52 0
564 -54 52 0
-564 54 52 0
-564 -54 -52 0
-565 560 0
-565 52 0
-565 51 -54 0
-565 -51 54 0
565 -560 51 54 -52 0
565 -560 -51 -54 -52 0
566 563 -49 0
566 -563 49 0
-566 563 49 0
-566 -563 -49 0
567 52 -50 0
567 -52 50 0
-567 52 50 0
-567 -52 -50 0
-568 563 0
-568 50 0
-568 49 -52 0
-568 -49 52 0
568 -563 49 52 -50 0
568 -563 -49 -52 -50 0
569 566 -47 0
569 -566 47 0
-569 566 47 0
-569 -566 -47 0
570 50 -48 0
570 -50 48 0
-570 50 48 0
-570 -50 -48 0
-571 566 0
-571 48 0
-571 47 -50 0
-571 -47 50 0
571 -566 47 50 -48 0
571 -566 -47 -50 -48 0
572 569 -45 0
572 -569 45 0
-572 569 45 0
-572 -569 -45 0
573 48 -46 0
573 -48 46 0
-573 48 46 0
-573 -48 -46 0
-574 569 0
-574 46 0
-574 45 -48 0
-574 -45 48 0
574 -569 45 48 -46 0
574 -569 -45 -48 -46 0
575 572 -43 0
575 -572 43 0
-575 572 43 0
-575 -572 -43 0
576 46 -44 0
576 -46 44 0
-576 46 44 0
-576 -46 -44 0
-577 572 0
-577 44 0
-577 43 -46 0
-577 -43 46 0
577 -572 43 46 -44 0
577 -572 -43 -46 -44 0
578 575 -41 0
578 -575 41 0
-578 575 41 0
-578 -575 -41 0
579 44 -42 0
579 -44 42 0
-579 44 42 0
-579 -44 -42 0
-580 575 0
-580 42 0
-580 41 -44 0
-580 -41 44 0
580 -575 41 44 -42 0
580 -575 -41 -44 -42 0
581 578 -39 0
581 -578 39 0
-581 578 39 0
-581 -578 -39 0
582 42 -40 0
582 -42 40 0
-582 42 40 0
-582 -42 -40 0
-583 578 0
-583 40 0
-583 39 -42 0
-583 -39 42 0
583 -578 39 42 -40 0
583 -578 -39 -42 -40 0
584 581 -37 0
584 -581 37 0
-584 581 37 0
-584 -581 -37 0
585 40 -38 0
585 -40 38 0
-585 40 38 0
-585 -40 -38 0
-586 581 0
-586 38 0
-586 37 -40 0
-586 -37 40 0
586 -581 37 40 -38 0
586 -581 -37 -40 -38 0
587 584 -35 0
587 -584 35 0
-587 584 35 0
-587 -584 -35 0
588 38 -36 0
588 -38 36 0
-588 38 36 0
-588 -38 -36 0
-589 584 0
-589 36 0
-589 35 -38 0
-589 -35 38 0
589 -584 35 38 -36 0
589 -584 -35 -38 -36 0
590 587 -33 0
590 -587 33 0
-590 587 33 0
-590 -587 -33 0
591 36 -34 0
591 -36 34 0
-591 36 34 0
-591 -36 -34 0
-592 587 0
-592 34 0
-592 33 -36 0
-592 -33 36 0
592 -587 33 36 -34 0
592 -587 -33 -36 -34 0
593 590 -31 0
593 -590 31 0
-593 590 31 0
-593 -590 -31 0
594 34 -32 0
594 -34 32 0
-594 34 32 0
-594 -34 -32 0
-595 590 0
-595 32 0
-595 31 -34 0
-595 -31 34 0
595 -590 31 34 -32 0
595 -590 -31 -34 -32 0
596 593 -29 0
596 -593 29 0
-596 593 29 0
-596 -593 -29 0
597 32 -30 0
597 -32 30 0
-597 32 30 0
-597 -32 -30 0
-598 593 0
-598 30 0
-598 29 -32 0
-598 -29 32 0
598 -593 29 32 -30 0
598 -593 -29 -32 -30 0
599 596 -27 0
599 -596 27 0
-599 596 27 0
-599 -596 -27 0
600 30 -28 0
600 -30 28 0
-600 30 28 0
-600 -30 -28 0
-601 596 0
-601 28 0
-601 27 -30 0
-601 -27 30 0
601 -596 27 30 -28 0
601 -596 -27 -30 -28 0
602 599 -25 0
602 -599 25 0
-602 599 25 0
-602 -599 -25 0
603 28 -26 0
603 -28 26 0
-603 28 26 0
-603 -28 -26 0
-604 599 0
-604 26 0
-604 25 -28 0
-604 -25 28 0
604 -599 25 28 -26 0
604 -599 -25 -28 -26 0
605 602 -23 0
605 -602 23 0
-605 602 23 0
-605 -602 -23 0
606 26 -24 0
606 -26 24 0
-606 26 24 0
-606 -26 -24 0
-607 602 0
-607 24 0
-607 23 -26 0
-607 -23 26 0
607 -602 23 26 -24 0
607 -602 -23 -26 -24 0
608 605 -21 0
608 -605 21 0
-608 605 21 0
-608 -605 -21 0
609 24 -22 0
609 -24 22 0
-609 24 22 0
-609 -24 -22 0
-610 605 0
-610 22 0
-610 21 -24 0
-610 -21 24 0
610 -605 21 24 -22 0
610 -605 -21 -24 -22 0
611 608 -19 0
611 -608 19 0
-611 608 19 0
-611 -608 -19 0
612 22 -20 0
612 -22 20 0
-612 22 20 0
-612 -22 -20 0
-613 608 0
-613 20 0
-613 19 -22 0
-613 -19 22 0
613 -608 19 22 -20 0
613 -608 -19 -22 -20 0
614 611 -17 0
614 -611 17 0
-614 611 17 0
-614 -611 -17 0
615 20 -18 0
615 -20 18 0
-615 20 18 0
-615 -20 -18 0
-616 611 0
-616 18 0
-616 17 -20 0
-616 -17 20 0
616 -611 17 20 -18 0
616 -611 -17 -20 -18 0
617 614 -15 0
617 -614 15 0
-617 614 15 0
-617 -614 -15 0
618 18 -16 0
618 -18 16 0
-618 18 16 0
-618 -18 -16 0
-619 614 0
-619 16 0
-619 15 -18 0
-619 -15 18 0
619 -614 15 18 -16 0
619 -614 -15 -18 -16 0
620 617 -13 0
620 -617 13 0
-620 617 13 0
-620 -617 -13 0
621 16 -14 0
621 -16 14 0
-621 16 14 0
-621 -16 -14 0
-622 617 0
-622 14 0
-622 13 -16 0
-622 -13 16 0
622 -617 13 16 -14 0
622 -617 -13 -16 -14 0
623 620 -11 0
623 -620 11 0
-623 620 11 0
-623 -620 -11 0
624 14 -12 0
624 -14 12 0
-624 14 12 0
-624 -14 -12 0
-625 620 0
-625 12 0
-625 11 -14 0
-625 -11 14 0
625 -620 11 14 -12 0
625 -620 -11 -14 -12 0
626 623 -9 0
626 -623 9 0
-626 623 9 0
-626 -623 -9 0
627 12 -10 0
627 -12 10 0
-627 12 10 0
-627 -12 -10 0
-628 623 0
-628 10 0
-628 9 -12 0
-628 -9 12 0
628 -623 9 12 -10 0
628 -623 -9 -12 -10 0
629 626 -7 0
629 -626 7 0
-629 626 7 0
-629 -626 -7 0
630 10 -8 0
630 -10 8 0
-630 10 8 0
-630 -10 -8 0
-631 626 0
-631 8 0
-631 7 -10 0
-631 -7 10 0
631 -626 7 10 -8 0
631 -626 -7 -10 -8 0
632 629 -5 0
632 -629 5 0
-632 629 5 0
-632 -629 -5 0
633 8 -6 0
633 -8 6 0
-633 8 6 0
-633 -8 -6 0
-634 629 0
-634 6 0
-634 5 -8 0
-634 -5 8 0
634 -629 5 8 -6 0
634 -629 -5 -8 -6 0
635 632 -3 0
635 -632 3 0
-635 632 3 0
-635 -632 -3 0
636 6 -4 0
636 -6 4 0
-636 6 4 0
-636 -6 -4 0
-637 632 0
-637 4 0
-637 3 -6 0
-637 -3 6 0
637 -632 3 6 -4 0
637 -632 -3 -6 -4 0
638 635 -1 0
638 -635 1 0
-638 635 1 0
-638 -635 -1 0
639 4 -2 0
639 -4 2 0
-639 4 2 0
-639 -4 -2 0
-640 635 0
-640 2 0
-640 1 -4 0
-640 -1 4 0
640 -635 1 4 -2 0
640 -635 -1 -4 -2 0
-638 0
-635 0
-639 0
-632 0
-636 0
-629 0
-633 0
-626 0
-630 0
-623 0
-627 0
-620 0
-624 0
-617 0
-621 0
-614 0
-618 0
-611 0
-615 0
-608 0
-612 0
-605 0
-609 0
-602 0
-606 0
-599 0
-603 0
-596 0
-600 0
-593 0
-597 0
-590 0
-594 0
-587 0
-591 0
-584 0
-588 0
-581 0
-585 0
-578 0
-582 0
-575 0
-579 0
-572 0
-576 0
-569 0
-573 0
-566 0
-570 0
-563 0
-567 0
-560 0
-564 0
-557 0
-561 0
-554 0
-558 0
-551 0
-555 0
-548 0
-552 0
-545 0
-549 0
-542 0
-546 0
-539 0
-543 0
-536 0
-540 0
-533 0
-537 0
-530 0
-534 0
-527 0
-531 0
-524 0
-528 0
-521 0
-525 0
-518 0
-522 0
-515 0
-519 0
-512 0
-516 0
-509 0
-513 0
-506 0
-510 0
-503 0
-507 0
-500 0
-504 0
-497 0
-501 0
-494 0
-498 0
-491 0
-495 0
-488 0
-492 0
-485 0
-489 0
-482 0
-486 0
-479 0
-483 0
-476 0
-480 0
-473 0
-477 0
-470 0
-474 0
-467 0
-471 0
-464 0
-468 0
-461 0
-465 0
-458 0
-462 0
-455 0
-459 0
-452 0
-456 0
-449 0
-453 0
-446 0
-450 0
-443 0
-447 0
-440 0
-444 0
-437 0
-441 0
-434 0
-438 0
-431 0
-435 0
-428 0
-432 0
-425 0
-429 0
-422 0
-426 0
-419 0
-423 0
-416 0
-420 0
-413 0
-417 0
-410 0
-414 0
-407 0
-411 0
-404 0
-408 0
-401 0
-405 0
-398 0
-402 0
-395 0
-399 0
-392 0
-396 0
-389 0
-393 0
-386 0
-390 0
-383 0
-387 0
-380 0
-384 0
-377 0
-381 0
-374 0
-378 0
-371 0
-375 0
-368 0
-372 0
-365 0
-369 0
-362 0
-366 0
-359 0
-363 0
-356 0
-360 0
-353 0
-357 0
-350 0
-354 0
-347 0
-351 0
-344 0
-348 0
-341 0
-345 0
-338 0
-342 0
-335 0
-339 0
-332 0
-336 0
-329 0
-333 0
-326 0
-330 0
-323 0
-327 0
-320 0
-324 0
-317 0
-321 0
-314 0
-318 0
-311 0
-315 0
-308 0
-312 0
-305 0
-309 0
-302 0
-306 0
-299 0
-303 0
-296 0
-300 0
-293 0
-297 0
-290 0
-294 0
-287 0
-291 0
-284 0
-288 0
-281 0
-285 0
-278 0
-282 0
-275 0
-279 0
-272 0
-276 0
-269 0
-273 0
-266 0
-270 0
-263 0
-267 0
-257 0
-264 0
